
  32    1
  10

   0   0   6 2 4 5 6 7 11 
   9   1   4 14 13 8 3 
   4   2   5 18 17 15 12 10 
   6   3   5 20 17 15 13 10 
  10   6   3 18 12 9 
   3   6   7 31 30 28 20 17 16 14 
   8   3   4 30 21 16 12 
   7   4   3 21 15 12 
   9   6   7 31 30 28 27 22 17 14 
   3   2   7 31 30 29 28 21 19 16 
   3   6   6 31 28 21 20 19 16 
   6   7   7 31 29 28 25 22 20 19 
   7   5   7 30 29 28 27 25 21 19 
   9   4   4 29 25 21 19 
   2   2   5 30 27 25 24 23 
  10   7   4 27 26 25 22 
   9   6   3 26 23 21 
   2   3   3 25 24 22 
   2   3   3 26 24 23 
   8   1   3 27 24 23 
  10   6   1 24 
   8   4   1 23 
   1   4   1 32
  10   5   1 32
   2   4   1 32
   6   2   1 32
   5   3   1 32
   4   3   1 32
   6   2   1 32
   4   5   1 32
   6   5   1 32
   0   0   0 
